objective value:                          -6233.96242
x10                                                 1 	(obj:-288.181)
x26                                                 1 	(obj:-901.504)
x84                                                 1 	(obj:-69.8484)
x86                                                 1 	(obj:-503.984)
x98                                                 1 	(obj:-312.446)
x102                                                1 	(obj:-384.852)
x137                                                1 	(obj:-135.725)
x141                                                1 	(obj:-611.305)
x148                                                1 	(obj:-7.65722)
x169                                                1 	(obj:-165.366)
x285                                                1 	(obj:-645.136)
x327                                                1 	(obj:-111.695)
x341                                                1 	(obj:-111.784)
x379                                                1 	(obj:-908.508)
x394                                                1 	(obj:-107.572)
x405                                                1 	(obj:-234.397)
x415                                                1 	(obj:-273.711)
x429                                                1 	(obj:-84.0698)
x452                                                1 	(obj:-376.221)
